n_res = 6;
rc = [ 17, 18, 16, 16, 16, 18 ];
n_tasks = 101;
d = [ 8, 2, 4, 1, 1, 1, 10, 1, 8, 1, 5, 3, 9, 3, 4, 1, 1, 7, 1, 1, 1, 9, 1, 1, 1, 5, 1, 10, 1, 1, 3, 7, 1, 4, 5, 1, 8, 1, 1, 1, 6, 1, 1, 1, 1, 1, 4, 5, 3, 1, 1, 1, 1, 5, 5, 5, 1, 1, 4, 10, 1, 1, 1, 8, 5, 1, 1, 1, 6, 1, 1, 1, 6, 3, 4, 5, 2, 1, 3, 8, 2, 1, 1, 10, 1, 4, 2, 2, 5, 1, 1, 1, 1, 1, 8, 8, 1, 1, 1, 1, 6 ];
rr = [| 6, 8, 7, 10, 9, 3, 10, 2, 6, 1, 1, 5, 1, 6, 7, 2, 1, 4, 6, 3, 4, 4, 6, 2, 7, 4, 4, 3, 8, 1, 4, 6, 9, 7, 10, 9, 7, 7, 9, 8, 3, 10, 6, 9, 4, 4, 1, 6, 7, 2, 7, 4, 1, 6, 1, 8, 10, 10, 4, 2, 10, 10, 6, 4, 10, 2, 1, 1, 10, 8, 1, 4, 8, 8, 9, 7, 8, 3, 6, 5, 5, 6, 2, 7, 1, 10, 2, 8, 4, 6, 10, 5, 4, 10, 3, 2, 9, 8, 6, 7, 10
      | 6, 9, 4, 9, 9, 6, 3, 2, 3, 9, 1, 8, 1, 9, 6, 9, 3, 3, 7, 1, 5, 1, 2, 2, 3, 6, 8, 8, 6, 8, 3, 3, 5, 2, 10, 8, 6, 8, 9, 5, 3, 8, 9, 7, 8, 5, 3, 1, 4, 3, 7, 8, 8, 6, 8, 3, 8, 5, 1, 2, 10, 9, 4, 5, 9, 4, 10, 7, 8, 10, 5, 8, 2, 2, 10, 8, 1, 6, 4, 6, 7, 1, 9, 9, 2, 8, 10, 9, 6, 6, 1, 10, 1, 1, 10, 2, 6, 10, 3, 8, 3
      | 5, 5, 2, 4, 7, 1, 10, 2, 10, 5, 7, 5, 1, 9, 6, 6, 3, 7, 7, 2, 3, 4, 3, 2, 5, 10, 3, 4, 3, 9, 3, 5, 4, 5, 10, 1, 7, 6, 5, 7, 7, 7, 6, 5, 10, 10, 1, 2, 9, 5, 1, 2, 1, 4, 1, 3, 8, 1, 8, 8, 8, 5, 8, 3, 7, 10, 3, 5, 5, 9, 2, 4, 1, 3, 6, 1, 1, 5, 8, 7, 1, 10, 8, 3, 4, 9, 6, 7, 2, 9, 4, 5, 7, 4, 1, 2, 2, 9, 2, 8, 10
      | 6, 5, 3, 10, 2, 7, 2, 10, 4, 2, 4, 6, 4, 6, 7, 2, 5, 2, 3, 10, 3, 3, 3, 1, 10, 2, 10, 1, 3, 8, 3, 2, 9, 2, 4, 5, 2, 4, 6, 1, 8, 3, 1, 7, 4, 6, 6, 3, 2, 5, 10, 4, 7, 5, 4, 1, 2, 8, 3, 4, 5, 2, 9, 9, 7, 7, 5, 10, 6, 3, 3, 7, 4, 2, 9, 4, 4, 5, 6, 1, 6, 7, 4, 10, 6, 1, 4, 8, 5, 5, 10, 4, 6, 5, 9, 10, 10, 1, 7, 6, 1
      | 2, 5, 9, 6, 3, 4, 7, 10, 10, 1, 4, 7, 5, 8, 4, 4, 7, 3, 2, 8, 5, 7, 2, 5, 4, 2, 2, 3, 7, 6, 2, 5, 3, 3, 2, 4, 4, 7, 6, 5, 10, 2, 1, 6, 10, 7, 4, 3, 1, 5, 3, 4, 7, 6, 4, 7, 7, 2, 7, 1, 9, 6, 3, 10, 10, 3, 9, 4, 7, 8, 7, 5, 5, 1, 1, 7, 5, 3, 9, 1, 7, 9, 8, 7, 4, 7, 3, 8, 6, 3, 7, 10, 6, 2, 8, 1, 2, 9, 6, 4, 3
      | 3, 10, 5, 3, 3, 6, 2, 2, 6, 9, 6, 5, 3, 2, 10, 6, 8, 8, 5, 5, 3, 6, 5, 7, 7, 9, 2, 8, 6, 7, 2, 10, 7, 9, 9, 1, 9, 4, 8, 1, 7, 10, 10, 9, 5, 10, 1, 2, 8, 10, 3, 2, 1, 10, 8, 7, 1, 9, 1, 9, 8, 2, 8, 5, 9, 4, 7, 10, 10, 4, 9, 5, 9, 8, 8, 8, 8, 10, 10, 6, 6, 6, 5, 4, 4, 3, 3, 5, 2, 10, 1, 4, 8, 1, 7, 5, 5, 8, 3, 2, 10 |];
suc = [ { 4, 5, 7 },
	{ 5, 6, 7 },
	{ 5, 7 },
	{ 8, 10, 11 },
	{ 8, 11 },
	{ 8, 9, 10, 11 },
	{ 9, 10, 11 },
	{ 12 },
	{ 13, 15 },
	{ 13, 14, 15 },
	{ 14, 15 },
	{ 18 },
	{ 18, 19 },
	{ 16, 17 },
	{ 17, 19 },
	{ 22, 23 },
	{ 20, 23 },
	{ 20, 21, 22, 23 },
	{ 20, 21, 22, 23 },
	{ 25 },
	{ 27 },
	{ 24, 26, 27 },
	{ 25 },
	{ 29, 30 },
	{ 30, 31 },
	{ 28, 31 },
	{ 29, 30, 31 },
	{ 32, 33, 35 },
	{ 33, 34 },
	{ 32, 34, 35 },
	{ 32, 35 },
	{ 36, 37, 38, 39 },
	{ 37, 39 },
	{ 36 },
	{ 39 },
	{ 40, 41 },
	{ 41 },
	{ 40, 41, 43 },
	{ 40, 42 },
	{ 44, 45 },
	{ 45, 47 },
	{ 44, 46 },
	{ 46, 47 },
	{ 50 },
	{ 48 },
	{ 49, 51 },
	{ 49, 50, 51 },
	{ 53, 55 },
	{ 54 },
	{ 52, 53, 55 },
	{ 52, 55 },
	{ 57, 59 },
	{ 57 },
	{ 56, 58, 59 },
	{ 57, 59 },
	{ 60, 62 },
	{ 60, 61, 63 },
	{ 61, 62, 63 },
	{ 61, 63 },
	{ 64, 65, 66 },
	{ 64, 66, 67 },
	{ 64, 66, 67 },
	{ 64, 66, 67 },
	{ 69 },
	{ 69, 71 },
	{ 69, 70 },
	{ 68, 69 },
	{ 74 },
	{ 72, 73, 75 },
	{ 72 },
	{ 72, 73 },
	{ 77, 78 },
	{ 76, 77, 78 },
	{ 76, 78, 79 },
	{ 76, 78 },
	{ 80, 82 },
	{ 80, 81, 82 },
	{ 80, 81, 82, 83 },
	{ 80 },
	{ 84 },
	{ 84, 87 },
	{ 85, 86 },
	{ 84, 85, 87 },
	{ 88 },
	{ 88, 89 },
	{ 90 },
	{ 91 },
	{ 92, 93, 95 },
	{ 92, 93, 94 },
	{ 92, 93 },
	{ 92, 93 },
	{ 97 },
	{ 97 },
	{ 98, 99 },
	{ 96, 98 },
	{ 100, 101 },
	{ 100 },
	{ 100 },
	{ 100 },
	{  },
	{  } ];
